
Log started (V11.0.0) Sun Apr 13 13:27:50 2008

Tried aggregator 1 time.
Reduced MIP has 210 rows, 2001 columns, and 4010 nonzeros.
Presolve time =    0.02 sec.
Clique table members: 200.
MIP emphasis: balance optimality and feasibility.
MIP search method: dynamic search.
Parallel mode: none, using 1 thread.
Root relaxation solution time =    0.05 sec.

        Nodes                                         Cuts/
   Node  Left     Objective  IInf  Best Integer     Best Node    ItCnt     Gap

*     0+    0                        10169.0000      194.4148      307   98.09%
*     0+    0                          204.0000      194.4148      307    4.70%
      0     0      195.0000    20      204.0000     Fract: 10      322    4.41%
      0     0      195.0000    23      204.0000     Covers: 1      328    4.41%
      0     0      195.0000    26      204.0000     Covers: 1      340    4.41%
      0     2      195.0000    26      204.0000      195.0000      340    4.41%
*    20+   18                          203.0000      195.0000      902    3.94%
*    70+   44                          202.0000      195.0000     3730    3.47%
*    90+   48                          199.0000      195.0000     4670    2.01%
    100    55      198.0000    12      199.0000      195.0000     4895    2.01%
    200   119      197.0009    21      199.0000      195.0000     7079    2.01%
    300   181      196.0000    17      199.0000      195.0000     8290    2.01%
    400   246      196.0000    20      199.0000      195.0000     9503    2.01%
    500   316      197.0000    15      199.0000      196.0000    11714    1.51%
    600   319    infeasible            199.0000      196.0000    13647    1.51%
    700   327      196.0000    39      199.0000      196.0000    16434    1.51%
    800   327      197.0000    22      199.0000      196.0000    19141    1.51%
*   823+  238                          198.0000      196.0000    19578    1.01%
    900   251      197.0000    25      198.0000      196.0000    21206    1.01%
   1000   330      197.0000    28      198.0000      196.0000    23181    1.01%
Elapsed time =   7.19 sec. (tree size =  0.17 MB, solutions = 6)
   1100   416      196.0000    42      198.0000      196.0000    26438    1.01%
   1200   502      197.0000    28      198.0000      196.0000    28953    1.01%
   1300   583      197.0000    28      198.0000      196.0000    32413    1.01%
   1400   666      197.0000    26      198.0000      196.0000    35691    1.01%
   1500   744      196.0000    37      198.0000      196.0000    38748    1.01%
   1600   827      197.0000    39      198.0000      196.0000    41334    1.01%
   1700   902      197.0000    31      198.0000      196.0000    45633    1.01%
   1800   982      197.0000    29      198.0000      196.0000    48569    1.01%
   1900  1062    infeasible            198.0000      196.0000    51476    1.01%
   2000  1138      197.0000    31      198.0000      196.0000    55807    1.01%
Elapsed time =  13.84 sec. (tree size =  0.61 MB, solutions = 6)
   2100  1221      197.0000    27      198.0000      196.0000    59509    1.01%
   2200  1302      197.0000    39      198.0000      196.0000    62903    1.01%
   2300  1373      197.0000    35      198.0000      196.0000    66797    1.01%
   2400  1450      197.0000    25      198.0000      196.0000    69926    1.01%
   2500  1535    infeasible            198.0000      196.0000    73633    1.01%
   2600  1608    infeasible            198.0000      196.0000    78676    1.01%
   2700  1688      197.0000    37      198.0000      196.0000    83044    1.01%
   2800  1760      197.0000    47      198.0000      196.0000    88222    1.01%
   2900  1843      197.0000    29      198.0000      196.0000    91202    1.01%
   3000  1916      197.0000    53      198.0000      196.0000    96074    1.01%
Elapsed time =  23.09 sec. (tree size =  1.03 MB, solutions = 6)
   3100  1994      197.0000    27      198.0000      196.0000   100098    1.01%
*  3183+  102                          197.0000      196.0000   105110    0.51%
   3200   115      196.0000    57      197.0000      196.0000   106551    0.51%
   3300   139    infeasible            197.0000      196.0000   119428    0.51%
   3400    95      196.0000    76      197.0000      196.0000   151929    0.51%
   3500   127    infeasible            197.0000      196.0000   169171    0.51%
   3600   162      196.0000    56      197.0000      196.0000   184590    0.51%
   3700   162      196.0000    78      197.0000      196.0000   203879    0.51%
   3800   176    infeasible            197.0000      196.0000   223627    0.51%
   3900   204      196.0000    86      197.0000      196.0000   240356    0.51%
   4000   204    infeasible            197.0000      196.0000   264779    0.51%
Elapsed time =  70.02 sec. (tree size =  0.13 MB, solutions = 7)
   4100   178      196.0000    83      197.0000      196.0000   294862    0.51%
   4200   152      196.0000    70      197.0000      196.0000   323948    0.51%
   4300   168    infeasible            197.0000      196.0000   346266    0.51%
   4400   156    infeasible            197.0000      196.0000   374615    0.51%
   4500   137    infeasible            197.0000      196.0000   403672    0.51%
   4600   141    infeasible            197.0000      196.0000   423664    0.51%
   4700   115    infeasible            197.0000      196.0000   453023    0.51%
   4800   109      196.0000    81      197.0000      196.0000   477125    0.51%
   4900    93      196.0000    82      197.0000      196.0000   502556    0.51%
   5000    77      196.0000    80      197.0000      196.0000   530917    0.51%
Elapsed time = 163.06 sec. (tree size =  0.07 MB, solutions = 7)
   5100    45      196.0000    73      197.0000      196.0000   562658    0.51%
   5200    11    infeasible            197.0000      196.0000   594483    0.51%
   5300    13    infeasible            197.0000      196.0000   617145    0.51%

Cover cuts applied:  940
Mixed integer rounding cuts applied:  24
Zero-half cuts applied:  1
Gomory fractional cuts applied:  10

Solution pool: 7 solutions saved.

MIP - Integer optimal solution:  Objective = 1.9700000000e+002
Solution time =  198.77 sec.  Iterations = 634180  Nodes = 5368


Incumbent solution
Variable Name           Solution Value
Cmax                        197.000000
X_1_7                         1.000000
X_2_2                         1.000000
X_3_10                        1.000000
X_4_7                         1.000000
X_5_2                         1.000000
X_6_4                         1.000000
X_7_10                        1.000000
X_8_5                         1.000000
X_9_8                         1.000000
X_10_3                        1.000000
X_11_1                        1.000000
X_12_7                        1.000000
X_13_8                        1.000000
X_14_10                       1.000000
X_15_5                        1.000000
X_16_4                        1.000000
X_17_4                        1.000000
X_18_2                        1.000000
X_19_9                        1.000000
X_20_1                        1.000000
X_21_9                        1.000000
X_22_3                        1.000000
X_23_5                        1.000000
X_24_3                        1.000000
X_25_5                        1.000000
X_26_4                        1.000000
X_27_9                        1.000000
X_28_8                        1.000000
X_29_2                        1.000000
X_30_6                        1.000000
X_31_5                        1.000000
X_32_6                        1.000000
X_33_9                        1.000000
X_34_8                        1.000000
X_35_7                        1.000000
X_36_1                        1.000000
X_37_10                       1.000000
X_38_4                        1.000000
X_39_2                        1.000000
X_40_6                        1.000000
X_41_5                        1.000000
X_42_8                        1.000000
X_43_2                        1.000000
X_44_2                        1.000000
X_45_1                        1.000000
X_46_6                        1.000000
X_47_5                        1.000000
X_48_6                        1.000000
X_49_10                       1.000000
X_50_6                        1.000000
X_51_3                        1.000000
X_52_4                        1.000000
X_53_4                        1.000000
X_54_3                        1.000000
X_55_1                        1.000000
X_56_10                       1.000000
X_57_5                        1.000000
X_58_8                        1.000000
X_59_8                        1.000000
X_60_9                        1.000000
X_61_4                        1.000000
X_62_8                        1.000000
X_63_5                        1.000000
X_64_8                        1.000000
X_65_8                        1.000000
X_66_7                        1.000000
X_67_3                        1.000000
X_68_3                        1.000000
X_69_8                        1.000000
X_70_4                        1.000000
X_71_3                        1.000000
X_72_6                        1.000000
X_73_3                        1.000000
X_74_9                        1.000000
X_75_9                        1.000000
X_76_6                        1.000000
X_77_3                        1.000000
X_78_3                        1.000000
X_79_4                        1.000000
X_80_3                        1.000000
X_81_2                        1.000000
X_82_10                       1.000000
X_83_7                        1.000000
X_84_10                       1.000000
X_85_8                        1.000000
X_86_7                        1.000000
X_87_8                        1.000000
X_88_10                       1.000000
X_89_3                        1.000000
X_90_1                        1.000000
X_91_9                        1.000000
X_92_1                        1.000000
X_93_7                        1.000000
X_94_4                        1.000000
X_95_10                       1.000000
X_96_1                        1.000000
X_97_4                        1.000000
X_98_5                        1.000000
X_99_3                        1.000000
X_100_1                       1.000000
X_101_7                       1.000000
X_102_3                       1.000000
X_103_10                      1.000000
X_104_4                       1.000000
X_105_6                       1.000000
X_106_2                       1.000000
X_107_5                       1.000000
X_108_6                       1.000000
X_109_9                       1.000000
X_110_7                       1.000000
X_111_7                       1.000000
X_112_6                       1.000000
X_113_1                       1.000000
X_114_10                      1.000000
X_115_2                       1.000000
X_116_1                       1.000000
X_117_6                       1.000000
X_118_8                       1.000000
X_119_4                       1.000000
X_120_10                      1.000000
X_121_4                       1.000000
X_122_2                       1.000000
X_123_1                       1.000000
X_124_9                       1.000000
X_125_5                       1.000000
X_126_9                       1.000000
X_127_7                       1.000000
X_128_3                       1.000000
X_129_1                       1.000000
X_130_6                       1.000000
X_131_5                       1.000000
X_132_10                      1.000000
X_133_9                       1.000000
X_134_5                       1.000000
X_135_10                      1.000000
X_136_4                       1.000000
X_137_10                      1.000000
X_138_4                       1.000000
X_139_9                       1.000000
X_140_4                       1.000000
X_141_4                       1.000000
X_142_10                      1.000000
X_143_9                       1.000000
X_144_8                       1.000000
X_145_10                      1.000000
X_146_6                       1.000000
X_147_1                       1.000000
X_148_3                       1.000000
X_149_7                       1.000000
X_150_8                       1.000000
X_151_2                       1.000000
X_152_2                       1.000000
X_153_2                       1.000000
X_154_7                       1.000000
X_155_6                       1.000000
X_156_5                       1.000000
X_157_8                       1.000000
X_158_5                       1.000000
X_159_4                       1.000000
X_160_5                       1.000000
X_161_7                       1.000000
X_162_6                       1.000000
X_163_5                       1.000000
X_164_8                       1.000000
X_165_1                       1.000000
X_166_3                       1.000000
X_167_8                       1.000000
X_168_6                       1.000000
X_169_7                       1.000000
X_170_5                       1.000000
X_171_8                       1.000000
X_172_10                      1.000000
X_173_3                       1.000000
X_174_7                       1.000000
X_175_9                       1.000000
X_176_7                       1.000000
X_177_8                       1.000000
X_178_8                       1.000000
X_179_8                       1.000000
X_180_10                      1.000000
X_181_1                       1.000000
X_182_7                       1.000000
X_183_9                       1.000000
X_184_10                      1.000000
X_185_2                       1.000000
X_186_2                       1.000000
X_187_2                       1.000000
X_188_9                       1.000000
X_189_9                       1.000000
X_190_1                       1.000000
X_191_10                      1.000000
X_192_7                       1.000000
X_193_6                       1.000000
X_194_6                       1.000000
X_195_8                       1.000000
X_196_2                       1.000000
X_197_3                       1.000000
X_198_5                       1.000000
X_199_7                       1.000000
X_200_2                       1.000000
All other variables in the range 1-2001 are 0.
